num_offers = 40;
num_halls = 10;
start=[74,13,12,39,77,25,16,82,14,18,80,67,38,6,82,13,29,36,9,17,72,30,42,52,5,43,22,35,11,54,60,21,12,72,15,22,18,81,10,42];
end=[80,61,96,70,80,27,58,87,76,70,81,79,66,25,91,55,95,62,97,82,90,62,76,68,52,56,45,46,71,56,79,80,40,90,83,97,95,86,28,81];
price=[563,4511,1355,1292,94,133,2239,275,5432,2406,120,387,1355,612,302,3180,4525,1815,3493,5796,1813,944,2463,534,1760,527,492,529,2929,58,1003,2250,1404,1138,4995,1588,4977,425,1114,535];
requirement=[873,971,950,317,373,972,216,667,732,920,326,536,951,311,746,854,699,220,928,269,652,528,419,564,585,617,472,590,517,383,630,478,641,660,585,544,670,902,810,647];
capacity=[581,727,287,875,809,899,584,944,467,798];
